vaspfiles: writeposcar output
1.000000000000000     
16.0000000000  0.0000000000  0.0000000000
0.0000000000  16.0000000000  0.0000000000
0.0000000000  0.0000000000  16.0000000000
ELEM1 ELEM2 O
64 64 192
Direct
0.0000000000 0.0000000000 0.0000000000 ELEM1  OC_1
0.0000000000 0.0000000000 0.2500000000 ELEM1  OC_1
0.0000000000 0.0000000000 0.5000000000 ELEM1  OC_1
0.0000000000 0.0000000000 0.7500000000 ELEM1  OC_1
0.0000000000 0.2500000000 0.0000000000 ELEM1  OC_1
0.0000000000 0.2500000000 0.2500000000 ELEM1  OC_1
0.0000000000 0.2500000000 0.5000000000 ELEM1  OC_1
0.0000000000 0.2500000000 0.7500000000 ELEM1  OC_1
0.0000000000 0.5000000000 0.0000000000 ELEM1  OC_1
0.0000000000 0.5000000000 0.2500000000 ELEM1  OC_1
0.0000000000 0.5000000000 0.5000000000 ELEM1  OC_1
0.0000000000 0.5000000000 0.7500000000 ELEM1  OC_1
0.0000000000 0.7500000000 0.0000000000 ELEM1  OC_1
0.0000000000 0.7500000000 0.2500000000 ELEM1  OC_1
0.0000000000 0.7500000000 0.5000000000 ELEM1  OC_1
0.0000000000 0.7500000000 0.7500000000 ELEM1  OC_1
0.2500000000 0.0000000000 0.0000000000 ELEM1  OC_1
0.2500000000 0.0000000000 0.2500000000 ELEM1  OC_1
0.2500000000 0.0000000000 0.5000000000 ELEM1  OC_1
0.2500000000 0.0000000000 0.7500000000 ELEM1  OC_1
0.2500000000 0.2500000000 0.0000000000 ELEM1  OC_1
0.2500000000 0.2500000000 0.2500000000 ELEM1  OC_1
0.2500000000 0.2500000000 0.5000000000 ELEM1  OC_1
0.2500000000 0.2500000000 0.7500000000 ELEM1  OC_1
0.2500000000 0.5000000000 0.0000000000 ELEM1  OC_1
0.2500000000 0.5000000000 0.2500000000 ELEM1  OC_1
0.2500000000 0.5000000000 0.5000000000 ELEM1  OC_1
0.2500000000 0.5000000000 0.7500000000 ELEM1  OC_1
0.2500000000 0.7500000000 0.0000000000 ELEM1  OC_1
0.2500000000 0.7500000000 0.2500000000 ELEM1  OC_1
0.2500000000 0.7500000000 0.5000000000 ELEM1  OC_1
0.2500000000 0.7500000000 0.7500000000 ELEM1  OC_1
0.5000000000 0.0000000000 0.0000000000 ELEM1  OC_1
0.5000000000 0.0000000000 0.2500000000 ELEM1  OC_1
0.5000000000 0.0000000000 0.5000000000 ELEM1  OC_1
0.5000000000 0.0000000000 0.7500000000 ELEM1  OC_1
0.5000000000 0.2500000000 0.0000000000 ELEM1  OC_1
0.5000000000 0.2500000000 0.2500000000 ELEM1  OC_1
0.5000000000 0.2500000000 0.5000000000 ELEM1  OC_1
0.5000000000 0.2500000000 0.7500000000 ELEM1  OC_1
0.5000000000 0.5000000000 0.0000000000 ELEM1  OC_1
0.5000000000 0.5000000000 0.2500000000 ELEM1  OC_1
0.5000000000 0.5000000000 0.5000000000 ELEM1  OC_1
0.5000000000 0.5000000000 0.7500000000 ELEM1  OC_1
0.5000000000 0.7500000000 0.0000000000 ELEM1  OC_1
0.5000000000 0.7500000000 0.2500000000 ELEM1  OC_1
0.5000000000 0.7500000000 0.5000000000 ELEM1  OC_1
0.5000000000 0.7500000000 0.7500000000 ELEM1  OC_1
0.7500000000 0.0000000000 0.0000000000 ELEM1  OC_1
0.7500000000 0.0000000000 0.2500000000 ELEM1  OC_1
0.7500000000 0.0000000000 0.5000000000 ELEM1  OC_1
0.7500000000 0.0000000000 0.7500000000 ELEM1  OC_1
0.7500000000 0.2500000000 0.0000000000 ELEM1  OC_1
0.7500000000 0.2500000000 0.2500000000 ELEM1  OC_1
0.7500000000 0.2500000000 0.5000000000 ELEM1  OC_1
0.7500000000 0.2500000000 0.7500000000 ELEM1  OC_1
0.7500000000 0.5000000000 0.0000000000 ELEM1  OC_1
0.7500000000 0.5000000000 0.2500000000 ELEM1  OC_1
0.7500000000 0.5000000000 0.5000000000 ELEM1  OC_1
0.7500000000 0.5000000000 0.7500000000 ELEM1  OC_1
0.7500000000 0.7500000000 0.0000000000 ELEM1  OC_1
0.7500000000 0.7500000000 0.2500000000 ELEM1  OC_1
0.7500000000 0.7500000000 0.5000000000 ELEM1  OC_1
0.7500000000 0.7500000000 0.7500000000 ELEM1  OC_1
0.1250000000 0.1250000000 0.1250000000 ELEM2  OC_1
0.1250000000 0.1250000000 0.3750000000 ELEM2  OC_1
0.1250000000 0.1250000000 0.6250000000 ELEM2  OC_1
0.1250000000 0.1250000000 0.8750000000 ELEM2  OC_1
0.1250000000 0.3750000000 0.1250000000 ELEM2  OC_1
0.1250000000 0.3750000000 0.3750000000 ELEM2  OC_1
0.1250000000 0.3750000000 0.6250000000 ELEM2  OC_1
0.1250000000 0.3750000000 0.8750000000 ELEM2  OC_1
0.1250000000 0.6250000000 0.1250000000 ELEM2  OC_1
0.1250000000 0.6250000000 0.3750000000 ELEM2  OC_1
0.1250000000 0.6250000000 0.6250000000 ELEM2  OC_1
0.1250000000 0.6250000000 0.8750000000 ELEM2  OC_1
0.1250000000 0.8750000000 0.1250000000 ELEM2  OC_1
0.1250000000 0.8750000000 0.3750000000 ELEM2  OC_1
0.1250000000 0.8750000000 0.6250000000 ELEM2  OC_1
0.1250000000 0.8750000000 0.8750000000 ELEM2  OC_1
0.3750000000 0.1250000000 0.1250000000 ELEM2  OC_1
0.3750000000 0.1250000000 0.3750000000 ELEM2  OC_1
0.3750000000 0.1250000000 0.6250000000 ELEM2  OC_1
0.3750000000 0.1250000000 0.8750000000 ELEM2  OC_1
0.3750000000 0.3750000000 0.1250000000 ELEM2  OC_1
0.3750000000 0.3750000000 0.3750000000 ELEM2  OC_1
0.3750000000 0.3750000000 0.6250000000 ELEM2  OC_1
0.3750000000 0.3750000000 0.8750000000 ELEM2  OC_1
0.3750000000 0.6250000000 0.1250000000 ELEM2  OC_1
0.3750000000 0.6250000000 0.3750000000 ELEM2  OC_1
0.3750000000 0.6250000000 0.6250000000 ELEM2  OC_1
0.3750000000 0.6250000000 0.8750000000 ELEM2  OC_1
0.3750000000 0.8750000000 0.1250000000 ELEM2  OC_1
0.3750000000 0.8750000000 0.3750000000 ELEM2  OC_1
0.3750000000 0.8750000000 0.6250000000 ELEM2  OC_1
0.3750000000 0.8750000000 0.8750000000 ELEM2  OC_1
0.6250000000 0.1250000000 0.1250000000 ELEM2  OC_1
0.6250000000 0.1250000000 0.3750000000 ELEM2  OC_1
0.6250000000 0.1250000000 0.6250000000 ELEM2  OC_1
0.6250000000 0.1250000000 0.8750000000 ELEM2  OC_1
0.6250000000 0.3750000000 0.1250000000 ELEM2  OC_1
0.6250000000 0.3750000000 0.3750000000 ELEM2  OC_1
0.6250000000 0.3750000000 0.6250000000 ELEM2  OC_1
0.6250000000 0.3750000000 0.8750000000 ELEM2  OC_1
0.6250000000 0.6250000000 0.1250000000 ELEM2  OC_1
0.6250000000 0.6250000000 0.3750000000 ELEM2  OC_1
0.6250000000 0.6250000000 0.6250000000 ELEM2  OC_1
0.6250000000 0.6250000000 0.8750000000 ELEM2  OC_1
0.6250000000 0.8750000000 0.1250000000 ELEM2  OC_1
0.6250000000 0.8750000000 0.3750000000 ELEM2  OC_1
0.6250000000 0.8750000000 0.6250000000 ELEM2  OC_1
0.6250000000 0.8750000000 0.8750000000 ELEM2  OC_1
0.8750000000 0.1250000000 0.1250000000 ELEM2  OC_1
0.8750000000 0.1250000000 0.3750000000 ELEM2  OC_1
0.8750000000 0.1250000000 0.6250000000 ELEM2  OC_1
0.8750000000 0.1250000000 0.8750000000 ELEM2  OC_1
0.8750000000 0.3750000000 0.1250000000 ELEM2  OC_1
0.8750000000 0.3750000000 0.3750000000 ELEM2  OC_1
0.8750000000 0.3750000000 0.6250000000 ELEM2  OC_1
0.8750000000 0.3750000000 0.8750000000 ELEM2  OC_1
0.8750000000 0.6250000000 0.1250000000 ELEM2  OC_1
0.8750000000 0.6250000000 0.3750000000 ELEM2  OC_1
0.8750000000 0.6250000000 0.6250000000 ELEM2  OC_1
0.8750000000 0.6250000000 0.8750000000 ELEM2  OC_1
0.8750000000 0.8750000000 0.1250000000 ELEM2  OC_1
0.8750000000 0.8750000000 0.3750000000 ELEM2  OC_1
0.8750000000 0.8750000000 0.6250000000 ELEM2  OC_1
0.8750000000 0.8750000000 0.8750000000 ELEM2  OC_1
0.1250000000 0.1250000000 0.0000000000 O  OC_1
0.1250000000 0.1250000000 0.2500000000 O  OC_1
0.1250000000 0.1250000000 0.5000000000 O  OC_1
0.1250000000 0.1250000000 0.7500000000 O  OC_1
0.1250000000 0.3750000000 0.0000000000 O  OC_1
0.1250000000 0.3750000000 0.2500000000 O  OC_1
0.1250000000 0.3750000000 0.5000000000 O  OC_1
0.1250000000 0.3750000000 0.7500000000 O  OC_1
0.1250000000 0.6250000000 0.0000000000 O  OC_1
0.1250000000 0.6250000000 0.2500000000 O  OC_1
0.1250000000 0.6250000000 0.5000000000 O  OC_1
0.1250000000 0.6250000000 0.7500000000 O  OC_1
0.1250000000 0.8750000000 0.0000000000 O  OC_1
0.1250000000 0.8750000000 0.2500000000 O  OC_1
0.1250000000 0.8750000000 0.5000000000 O  OC_1
0.1250000000 0.8750000000 0.7500000000 O  OC_1
0.3750000000 0.1250000000 0.0000000000 O  OC_1
0.3750000000 0.1250000000 0.2500000000 O  OC_1
0.3750000000 0.1250000000 0.5000000000 O  OC_1
0.3750000000 0.1250000000 0.7500000000 O  OC_1
0.3750000000 0.3750000000 0.0000000000 O  OC_1
0.3750000000 0.3750000000 0.2500000000 O  OC_1
0.3750000000 0.3750000000 0.5000000000 O  OC_1
0.3750000000 0.3750000000 0.7500000000 O  OC_1
0.3750000000 0.6250000000 0.0000000000 O  OC_1
0.3750000000 0.6250000000 0.2500000000 O  OC_1
0.3750000000 0.6250000000 0.5000000000 O  OC_1
0.3750000000 0.6250000000 0.7500000000 O  OC_1
0.3750000000 0.8750000000 0.0000000000 O  OC_1
0.3750000000 0.8750000000 0.2500000000 O  OC_1
0.3750000000 0.8750000000 0.5000000000 O  OC_1
0.3750000000 0.8750000000 0.7500000000 O  OC_1
0.6250000000 0.1250000000 0.0000000000 O  OC_1
0.6250000000 0.1250000000 0.2500000000 O  OC_1
0.6250000000 0.1250000000 0.5000000000 O  OC_1
0.6250000000 0.1250000000 0.7500000000 O  OC_1
0.6250000000 0.3750000000 0.0000000000 O  OC_1
0.6250000000 0.3750000000 0.2500000000 O  OC_1
0.6250000000 0.3750000000 0.5000000000 O  OC_1
0.6250000000 0.3750000000 0.7500000000 O  OC_1
0.6250000000 0.6250000000 0.0000000000 O  OC_1
0.6250000000 0.6250000000 0.2500000000 O  OC_1
0.6250000000 0.6250000000 0.5000000000 O  OC_1
0.6250000000 0.6250000000 0.7500000000 O  OC_1
0.6250000000 0.8750000000 0.0000000000 O  OC_1
0.6250000000 0.8750000000 0.2500000000 O  OC_1
0.6250000000 0.8750000000 0.5000000000 O  OC_1
0.6250000000 0.8750000000 0.7500000000 O  OC_1
0.8750000000 0.1250000000 0.0000000000 O  OC_1
0.8750000000 0.1250000000 0.2500000000 O  OC_1
0.8750000000 0.1250000000 0.5000000000 O  OC_1
0.8750000000 0.1250000000 0.7500000000 O  OC_1
0.8750000000 0.3750000000 0.0000000000 O  OC_1
0.8750000000 0.3750000000 0.2500000000 O  OC_1
0.8750000000 0.3750000000 0.5000000000 O  OC_1
0.8750000000 0.3750000000 0.7500000000 O  OC_1
0.8750000000 0.6250000000 0.0000000000 O  OC_1
0.8750000000 0.6250000000 0.2500000000 O  OC_1
0.8750000000 0.6250000000 0.5000000000 O  OC_1
0.8750000000 0.6250000000 0.7500000000 O  OC_1
0.8750000000 0.8750000000 0.0000000000 O  OC_1
0.8750000000 0.8750000000 0.2500000000 O  OC_1
0.8750000000 0.8750000000 0.5000000000 O  OC_1
0.8750000000 0.8750000000 0.7500000000 O  OC_1
0.0000000000 0.1250000000 0.1250000000 O  OC_1
0.0000000000 0.1250000000 0.3750000000 O  OC_1
0.0000000000 0.1250000000 0.6250000000 O  OC_1
0.0000000000 0.1250000000 0.8750000000 O  OC_1
0.0000000000 0.3750000000 0.1250000000 O  OC_1
0.0000000000 0.3750000000 0.3750000000 O  OC_1
0.0000000000 0.3750000000 0.6250000000 O  OC_1
0.0000000000 0.3750000000 0.8750000000 O  OC_1
0.0000000000 0.6250000000 0.1250000000 O  OC_1
0.0000000000 0.6250000000 0.3750000000 O  OC_1
0.0000000000 0.6250000000 0.6250000000 O  OC_1
0.0000000000 0.6250000000 0.8750000000 O  OC_1
0.0000000000 0.8750000000 0.1250000000 O  OC_1
0.0000000000 0.8750000000 0.3750000000 O  OC_1
0.0000000000 0.8750000000 0.6250000000 O  OC_1
0.0000000000 0.8750000000 0.8750000000 O  OC_1
0.2500000000 0.1250000000 0.1250000000 O  OC_1
0.2500000000 0.1250000000 0.3750000000 O  OC_1
0.2500000000 0.1250000000 0.6250000000 O  OC_1
0.2500000000 0.1250000000 0.8750000000 O  OC_1
0.2500000000 0.3750000000 0.1250000000 O  OC_1
0.2500000000 0.3750000000 0.3750000000 O  OC_1
0.2500000000 0.3750000000 0.6250000000 O  OC_1
0.2500000000 0.3750000000 0.8750000000 O  OC_1
0.2500000000 0.6250000000 0.1250000000 O  OC_1
0.2500000000 0.6250000000 0.3750000000 O  OC_1
0.2500000000 0.6250000000 0.6250000000 O  OC_1
0.2500000000 0.6250000000 0.8750000000 O  OC_1
0.2500000000 0.8750000000 0.1250000000 O  OC_1
0.2500000000 0.8750000000 0.3750000000 O  OC_1
0.2500000000 0.8750000000 0.6250000000 O  OC_1
0.2500000000 0.8750000000 0.8750000000 O  OC_1
0.5000000000 0.1250000000 0.1250000000 O  OC_1
0.5000000000 0.1250000000 0.3750000000 O  OC_1
0.5000000000 0.1250000000 0.6250000000 O  OC_1
0.5000000000 0.1250000000 0.8750000000 O  OC_1
0.5000000000 0.3750000000 0.1250000000 O  OC_1
0.5000000000 0.3750000000 0.3750000000 O  OC_1
0.5000000000 0.3750000000 0.6250000000 O  OC_1
0.5000000000 0.3750000000 0.8750000000 O  OC_1
0.5000000000 0.6250000000 0.1250000000 O  OC_1
0.5000000000 0.6250000000 0.3750000000 O  OC_1
0.5000000000 0.6250000000 0.6250000000 O  OC_1
0.5000000000 0.6250000000 0.8750000000 O  OC_1
0.5000000000 0.8750000000 0.1250000000 O  OC_1
0.5000000000 0.8750000000 0.3750000000 O  OC_1
0.5000000000 0.8750000000 0.6250000000 O  OC_1
0.5000000000 0.8750000000 0.8750000000 O  OC_1
0.7500000000 0.1250000000 0.1250000000 O  OC_1
0.7500000000 0.1250000000 0.3750000000 O  OC_1
0.7500000000 0.1250000000 0.6250000000 O  OC_1
0.7500000000 0.1250000000 0.8750000000 O  OC_1
0.7500000000 0.3750000000 0.1250000000 O  OC_1
0.7500000000 0.3750000000 0.3750000000 O  OC_1
0.7500000000 0.3750000000 0.6250000000 O  OC_1
0.7500000000 0.3750000000 0.8750000000 O  OC_1
0.7500000000 0.6250000000 0.1250000000 O  OC_1
0.7500000000 0.6250000000 0.3750000000 O  OC_1
0.7500000000 0.6250000000 0.6250000000 O  OC_1
0.7500000000 0.6250000000 0.8750000000 O  OC_1
0.7500000000 0.8750000000 0.1250000000 O  OC_1
0.7500000000 0.8750000000 0.3750000000 O  OC_1
0.7500000000 0.8750000000 0.6250000000 O  OC_1
0.7500000000 0.8750000000 0.8750000000 O  OC_1
0.1250000000 0.0000000000 0.1250000000 O  OC_1
0.1250000000 0.0000000000 0.3750000000 O  OC_1
0.1250000000 0.0000000000 0.6250000000 O  OC_1
0.1250000000 0.0000000000 0.8750000000 O  OC_1
0.1250000000 0.2500000000 0.1250000000 O  OC_1
0.1250000000 0.2500000000 0.3750000000 O  OC_1
0.1250000000 0.2500000000 0.6250000000 O  OC_1
0.1250000000 0.2500000000 0.8750000000 O  OC_1
0.1250000000 0.5000000000 0.1250000000 O  OC_1
0.1250000000 0.5000000000 0.3750000000 O  OC_1
0.1250000000 0.5000000000 0.6250000000 O  OC_1
0.1250000000 0.5000000000 0.8750000000 O  OC_1
0.1250000000 0.7500000000 0.1250000000 O  OC_1
0.1250000000 0.7500000000 0.3750000000 O  OC_1
0.1250000000 0.7500000000 0.6250000000 O  OC_1
0.1250000000 0.7500000000 0.8750000000 O  OC_1
0.3750000000 0.0000000000 0.1250000000 O  OC_1
0.3750000000 0.0000000000 0.3750000000 O  OC_1
0.3750000000 0.0000000000 0.6250000000 O  OC_1
0.3750000000 0.0000000000 0.8750000000 O  OC_1
0.3750000000 0.2500000000 0.1250000000 O  OC_1
0.3750000000 0.2500000000 0.3750000000 O  OC_1
0.3750000000 0.2500000000 0.6250000000 O  OC_1
0.3750000000 0.2500000000 0.8750000000 O  OC_1
0.3750000000 0.5000000000 0.1250000000 O  OC_1
0.3750000000 0.5000000000 0.3750000000 O  OC_1
0.3750000000 0.5000000000 0.6250000000 O  OC_1
0.3750000000 0.5000000000 0.8750000000 O  OC_1
0.3750000000 0.7500000000 0.1250000000 O  OC_1
0.3750000000 0.7500000000 0.3750000000 O  OC_1
0.3750000000 0.7500000000 0.6250000000 O  OC_1
0.3750000000 0.7500000000 0.8750000000 O  OC_1
0.6250000000 0.0000000000 0.1250000000 O  OC_1
0.6250000000 0.0000000000 0.3750000000 O  OC_1
0.6250000000 0.0000000000 0.6250000000 O  OC_1
0.6250000000 0.0000000000 0.8750000000 O  OC_1
0.6250000000 0.2500000000 0.1250000000 O  OC_1
0.6250000000 0.2500000000 0.3750000000 O  OC_1
0.6250000000 0.2500000000 0.6250000000 O  OC_1
0.6250000000 0.2500000000 0.8750000000 O  OC_1
0.6250000000 0.5000000000 0.1250000000 O  OC_1
0.6250000000 0.5000000000 0.3750000000 O  OC_1
0.6250000000 0.5000000000 0.6250000000 O  OC_1
0.6250000000 0.5000000000 0.8750000000 O  OC_1
0.6250000000 0.7500000000 0.1250000000 O  OC_1
0.6250000000 0.7500000000 0.3750000000 O  OC_1
0.6250000000 0.7500000000 0.6250000000 O  OC_1
0.6250000000 0.7500000000 0.8750000000 O  OC_1
0.8750000000 0.0000000000 0.1250000000 O  OC_1
0.8750000000 0.0000000000 0.3750000000 O  OC_1
0.8750000000 0.0000000000 0.6250000000 O  OC_1
0.8750000000 0.0000000000 0.8750000000 O  OC_1
0.8750000000 0.2500000000 0.1250000000 O  OC_1
0.8750000000 0.2500000000 0.3750000000 O  OC_1
0.8750000000 0.2500000000 0.6250000000 O  OC_1
0.8750000000 0.2500000000 0.8750000000 O  OC_1
0.8750000000 0.5000000000 0.1250000000 O  OC_1
0.8750000000 0.5000000000 0.3750000000 O  OC_1
0.8750000000 0.5000000000 0.6250000000 O  OC_1
0.8750000000 0.5000000000 0.8750000000 O  OC_1
0.8750000000 0.7500000000 0.1250000000 O  OC_1
0.8750000000 0.7500000000 0.3750000000 O  OC_1
0.8750000000 0.7500000000 0.6250000000 O  OC_1
0.8750000000 0.7500000000 0.8750000000 O  OC_1
